coords = array2d(1..71, 1..2, [794, 507, 555, 475, 840, 593, 66, 371, 709, 84,
    86, 38, 984, 876, 381, 250, 614, 615, 880, 912, 281, 239, 61, 492,
    381, 730, 485, 716, 842, 2, 514, 586, 560, 642, 611, 906, 20, 633,
    255, 910, 555, 36, 976, 393, 487, 809, 512, 921, 526, 71, 939,
    673, 593, 450, 846, 222, 109, 713, 357, 210, 85, 185, 232, 581,
    127, 232, 238, 794, 113, 244, 299, 592, 113, 689, 184, 264, 323,
    647, 570, 507, 392, 93, 135, 460, 921, 130, 954, 319, 834, 107,
    318, 31, 606, 440, 580, 409, 176, 133, 537, 443, 699, 317, 241,
    940, 707, 510, 813, 667, 16, 192, 77, 982, 481, 329, 12, 662, 81,
    121, 37, 681, 516, 725, 788, 674, 546, 940, 600, 17, 98, 912, 523,
    784, 518, 60, 563, 417, 795, 553, 401, 202, 427, 909]);

n = 71;

